# Objective value = 7.3850299999999961e+03
I_0_0 2666
I_0_1 3337
I_0_2 2.8439999999999982e+03
I_0_3 3.8870000000000005e+03
I_1_0 38
I_1_1 19
I_1_2 38
I_1_3 19
I_2_0 158
I_2_1 158
I_2_2 79
I_2_3 0
I_3_0 74
I_3_1 37
I_3_2 74
I_3_3 37
I_4_0 76
I_4_1 -1.3078427230084344e-13
I_4_2 7.5999999999999858e+01
I_4_3 -1.3078427230084344e-13
I_5_0 88
I_5_1 4.3999999999999439e+01
I_5_2 8.7999999999999432e+01
I_5_3 4.3999999999999439e+01
I_6_0 32
I_6_1 1.6000000000000096e+01
I_6_2 3.1999999999999897e+01
I_6_3 1.5999999999999897e+01
I_7_0 62
I_7_1 3.1000000000000025e+01
I_7_2 6.2000000000000043e+01
I_7_3 3.1000000000000011e+01
I_8_0 92
I_8_1 92
I_8_2 92
I_8_3 0
I_9_0 84
I_9_1 0
I_9_2 84
I_9_3 0
I_10_0 198
I_10_1 198
I_10_2 99
I_10_3 0
I_11_0 28
I_11_1 14
I_11_2 28
I_11_3 1.4000000000000002e+01
I_12_0 84
I_12_1 4.2000000000000092e+01
I_12_2 8.4000000000000114e+01
I_12_3 4.1999999999996582e+01
I_13_0 77
I_13_1 -5.1719739602162917e-13
I_13_2 7.7000000000000227e+01
I_13_3 -5.1719739602162917e-13
I_14_0 120
I_14_1 5.9999999999999666e+01
I_14_2 1.1999999999999999e+02
I_14_3 6.0000000000000277e+01
I_15_0 69
I_15_1 69
I_15_2 69
I_15_3 1.1452505610520802e-12
I_16_0 11
I_16_1 1.2823075934420558e-14
I_16_2 1.1000000000000025e+01
I_16_3 0
I_17_0 33
I_17_1 33
I_17_2 3.3000000000000114e+01
I_17_3 -1.1907141939104804e-13
I_18_0 110
I_18_1 5.4999999999999467e+01
I_18_2 1.0999999999999918e+02
I_18_3 5.4999999999999176e+01
I_19_0 168
I_19_1 84
I_19_2 168
I_19_3 84
I_20_0 21
I_20_1 0
I_20_2 21
I_20_3 0
q_1_0 0
q_1_1 38
q_1_2 0
q_2_0 79
q_2_1 0
q_2_2 0
q_3_0 0
q_3_1 74
q_3_2 8.8817841970012523e-16
q_4_0 -1.3078427230084344e-13
q_4_1 152
q_4_2 1.1324274851176597e-14
q_5_0 -5.6299409578741688e-13
q_5_1 88
q_5_2 0
q_6_0 9.5479180117763462e-14
q_6_1 32
q_6_2 0
q_7_0 2.6242896744577138e-14
q_7_1 6.2000000000000178e+01
q_7_2 -2.8421709430404007e-14
q_8_0 92
q_8_1 92
q_8_2 0
q_9_0 0
q_9_1 168
q_9_2 0
q_10_0 99
q_10_1 0
q_10_2 0
q_11_0 0
q_11_1 28
q_11_2 0
q_12_0 9.0927265716800321e-14
q_12_1 8.4000000000000014e+01
q_12_2 -3.5188065467461026e-12
q_13_0 -5.1719739602162917e-13
q_13_1 1.5400000000000074e+02
q_13_2 -7.4457107146486123e-13
q_14_0 -3.3473224192448470e-13
q_14_1 1.2000000000000138e+02
q_14_2 3.0020430585864233e-13
q_15_0 69
q_15_1 69
q_15_2 1.1452505610520802e-12
q_16_0 1.2823075934420558e-14
q_16_1 2.2000000000000014e+01
q_16_2 -2.4868995751603507e-14
q_17_0 33
q_17_1 3.3000000000000114e+01
q_17_2 -2.3275825711266407e-13
q_18_0 -5.32768273941997e-13
q_18_1 1.0999999999999966e+02
q_18_2 0
q_19_0 0
q_19_1 168
q_19_2 0
q_20_0 0
q_20_1 42
q_20_2 0
y_0_0 1
y_0_1 1
y_0_2 0
y_1_0 0
y_1_1 1
y_1_2 0
y_2_0 1
y_2_1 0
y_2_2 0
y_3_0 0
y_3_1 1
y_3_2 0
y_4_0 -1.7208456881689926e-15
y_4_1 9.9999999999999811e-01
y_4_2 -1.7208456881689926e-15
y_5_0 -1.2795320358804929e-14
y_5_1 1
y_5_2 0
y_6_0 5.9674487573602164e-15
y_6_1 1
y_6_2 0
y_7_0 8.4654505627668186e-16
y_7_1 1.0000000000000007e+00
y_7_2 0
y_8_0 1
y_8_1 1
y_8_2 0
y_9_0 0
y_9_1 1
y_9_2 0
y_10_0 1
y_10_1 -2.7755575615628914e-17
y_10_2 0
y_11_0 0
y_11_1 1
y_11_2 0
y_12_0 2.1649348980190553e-15
y_12_1 1
y_12_2 -2.7927036085286527e-14
y_13_0 -6.7168492989821971e-15
y_13_1 1.0000000000000029e+00
y_13_2 -6.7168492989821971e-15
y_14_0 -5.5788706987414116e-15
y_14_1 1
y_14_2 1.7208456881689926e-15
y_15_0 1
y_15_1 1
y_15_2 1.6597834218146090e-14
y_16_0 1.1657341758564144e-15
y_16_1 1.0000000000000022e+00
y_16_2 0
y_17_0 1
y_17_1 1.0000000000000036e+00
y_17_2 -3.6082248300317588e-15
y_18_0 -9.6866958898544908e-15
y_18_1 1
y_18_2 0
y_19_0 0
y_19_1 1.0000000000000022e+00
y_19_2 0
y_20_0 0
y_20_1 1
y_20_2 0
x_0_1_0 0
x_0_1_1 0
x_0_1_2 0
x_0_2_0 0
x_0_2_1 0
x_0_2_2 0
x_0_3_0 0
x_0_3_1 0
x_0_3_2 0
x_0_4_0 0
x_0_4_1 0
x_0_4_2 0
x_0_5_0 0
x_0_5_1 0
x_0_5_2 0
x_0_6_0 0
x_0_6_1 0
x_0_6_2 0
x_0_7_0 0
x_0_7_1 0
x_0_7_2 0
x_0_8_0 2.7755575615628914e-16
x_0_8_1 0
x_0_8_2 0
x_0_9_0 0
x_0_9_1 2.7200464103316335e-15
x_0_9_2 0
x_0_10_0 1.8610113450279187e-14
x_0_10_1 0
x_0_10_2 0
x_0_11_0 0
x_0_11_1 0
x_0_11_2 0
x_0_12_0 0
x_0_12_1 0
x_0_12_2 0
x_0_13_0 0
x_0_13_1 0
x_0_13_2 0
x_0_14_0 0
x_0_14_1 0
x_0_14_2 0
x_0_15_0 1.0000000000000013e+00
x_0_15_1 0.999999999999996
x_0_15_2 -1.8735013540549517e-16
x_0_16_0 0
x_0_16_1 0
x_0_16_2 0
x_0_17_0 9.9999999999999978e-01
x_0_17_1 0
x_0_17_2 0
x_0_18_0 -1.9373391779708982e-14
x_0_18_1 9.9999999999999423e-01
x_0_18_2 0
x_0_19_0 0
x_0_19_1 0
x_0_19_2 0
x_0_20_0 0
x_0_20_1 8.4654505627668186e-16
x_0_20_2 0
x_1_2_0 0
x_1_2_1 0
x_1_2_2 0
x_1_3_0 0
x_1_3_1 0
x_1_3_2 0
x_1_4_0 0
x_1_4_1 0
x_1_4_2 0
x_1_5_0 0
x_1_5_1 0
x_1_5_2 0
x_1_6_0 0
x_1_6_1 0
x_1_6_2 0
x_1_7_0 0
x_1_7_1 0
x_1_7_2 0
x_1_8_0 0
x_1_8_1 0
x_1_8_2 0
x_1_9_0 0
x_1_9_1 0
x_1_9_2 0
x_1_10_0 0
x_1_10_1 0
x_1_10_2 0
x_1_11_0 0
x_1_11_1 1
x_1_11_2 0
x_1_12_0 0
x_1_12_1 -8.8262730457699945e-15
x_1_12_2 0
x_1_13_0 0
x_1_13_1 0
x_1_13_2 0
x_1_14_0 0
x_1_14_1 0
x_1_14_2 0
x_1_15_0 0
x_1_15_1 0
x_1_15_2 0
x_1_16_0 0
x_1_16_1 8.8540286213856234e-15
x_1_16_2 0
x_1_17_0 0
x_1_17_1 0
x_1_17_2 0
x_1_18_0 0
x_1_18_1 0
x_1_18_2 0
x_1_19_0 0
x_1_19_1 1
x_1_19_2 0
x_1_20_0 0
x_1_20_1 0
x_1_20_2 0
x_2_3_0 0
x_2_3_1 0
x_2_3_2 0
x_2_4_0 0
x_2_4_1 0
x_2_4_2 0
x_2_5_0 0
x_2_5_1 0
x_2_5_2 0
x_2_6_0 0
x_2_6_1 0
x_2_6_2 0
x_2_7_0 0
x_2_7_1 0
x_2_7_2 0
x_2_8_0 1
x_2_8_1 0
x_2_8_2 0
x_2_9_0 0
x_2_9_1 0
x_2_9_2 0
x_2_10_0 1
x_2_10_1 -2.7755575615628914e-17
x_2_10_2 0
x_2_11_0 0
x_2_11_1 0
x_2_11_2 0
x_2_12_0 0
x_2_12_1 0
x_2_12_2 0
x_2_13_0 0
x_2_13_1 0
x_2_13_2 0
x_2_14_0 0
x_2_14_1 0
x_2_14_2 0
x_2_15_0 0
x_2_15_1 0
x_2_15_2 0
x_2_16_0 0
x_2_16_1 0
x_2_16_2 0
x_2_17_0 0
x_2_17_1 0
x_2_17_2 0
x_2_18_0 0
x_2_18_1 0
x_2_18_2 0
x_2_19_0 0
x_2_19_1 2.7755575615628914e-17
x_2_19_2 0
x_2_20_0 0
x_2_20_1 0
x_2_20_2 0
x_3_4_0 0
x_3_4_1 0
x_3_4_2 0
x_3_5_0 -1.2823075934420558e-14
x_3_5_1 1
x_3_5_2 0
x_3_6_0 0
x_3_6_1 0
x_3_6_2 0
x_3_7_0 0
x_3_7_1 0
x_3_7_2 0
x_3_8_0 0
x_3_8_1 0
x_3_8_2 0
x_3_9_0 1.2823075934420558e-14
x_3_9_1 1
x_3_9_2 0
x_3_10_0 0
x_3_10_1 0
x_3_10_2 0
x_3_11_0 0
x_3_11_1 0
x_3_11_2 0
x_3_12_0 0
x_3_12_1 0
x_3_12_2 0
x_3_13_0 0
x_3_13_1 0
x_3_13_2 0
x_3_14_0 0
x_3_14_1 0
x_3_14_2 0
x_3_15_0 0
x_3_15_1 0
x_3_15_2 0
x_3_16_0 0
x_3_16_1 0
x_3_16_2 0
x_3_17_0 0
x_3_17_1 0
x_3_17_2 0
x_3_18_0 0
x_3_18_1 0
x_3_18_2 0
x_3_19_0 0
x_3_19_1 0
x_3_19_2 0
x_3_20_0 0
x_3_20_1 0
x_3_20_2 0
x_4_5_0 0
x_4_5_1 0
x_4_5_2 0
x_4_6_0 0
x_4_6_1 0
x_4_6_2 0
x_4_7_0 0
x_4_7_1 0
x_4_7_2 0
x_4_8_0 0
x_4_8_1 0
x_4_8_2 0
x_4_9_0 0
x_4_9_1 0
x_4_9_2 0
x_4_10_0 0
x_4_10_1 0
x_4_10_2 0
x_4_11_0 0
x_4_11_1 -1.0713652187632761e-14
x_4_11_2 0
x_4_12_0 3.4972025275692431e-15
x_4_12_1 1.0000000000000024e+00
x_4_12_2 4.9404924595819466e-15
x_4_13_0 0
x_4_13_1 1
x_4_13_2 0
x_4_14_0 -6.9527716917150428e-15
x_4_14_1 1.5876189252139739e-14
x_4_14_2 -8.2989171090730451e-15
x_4_15_0 0
x_4_15_1 0
x_4_15_2 0
x_4_16_0 0
x_4_16_1 0
x_4_16_2 0
x_4_17_0 0
x_4_17_1 0
x_4_17_2 0
x_4_18_0 0
x_4_18_1 0
x_4_18_2 0
x_4_19_0 0
x_4_19_1 0
x_4_19_2 0
x_4_20_0 0
x_4_20_1 0
x_4_20_2 0
x_5_6_0 0
x_5_6_1 0
x_5_6_2 0
x_5_7_0 0
x_5_7_1 0
x_5_7_2 0
x_5_8_0 0
x_5_8_1 0
x_5_8_2 0
x_5_9_0 2.7755575615628914e-17
x_5_9_1 0
x_5_9_2 0
x_5_10_0 0
x_5_10_1 0
x_5_10_2 0
x_5_11_0 0
x_5_11_1 0
x_5_11_2 0
x_5_12_0 0
x_5_12_1 0
x_5_12_2 0
x_5_13_0 0
x_5_13_1 0
x_5_13_2 0
x_5_14_0 0
x_5_14_1 0
x_5_14_2 0
x_5_15_0 0
x_5_15_1 0
x_5_15_2 0
x_5_16_0 0
x_5_16_1 0
x_5_16_2 0
x_5_17_0 0
x_5_17_1 0
x_5_17_2 0
x_5_18_0 0
x_5_18_1 0
x_5_18_2 0
x_5_19_0 0
x_5_19_1 0
x_5_19_2 0
x_5_20_0 -1.2795320358804929e-14
x_5_20_1 1
x_5_20_2 0
x_6_7_0 0
x_6_7_1 0
x_6_7_2 0
x_6_8_0 0
x_6_8_1 0
x_6_8_2 0
x_6_9_0 0
x_6_9_1 0
x_6_9_2 0
x_6_10_0 5.9674487573602164e-15
x_6_10_1 0
x_6_10_2 0
x_6_11_0 0
x_6_11_1 0
x_6_11_2 0
x_6_12_0 5.9674487573602164e-15
x_6_12_1 0
x_6_12_2 0
x_6_13_0 0
x_6_13_1 0
x_6_13_2 0
x_6_14_0 0
x_6_14_1 0
x_6_14_2 0
x_6_15_0 0
x_6_15_1 0
x_6_15_2 0
x_6_16_0 0
x_6_16_1 9.9999999999999512e-01
x_6_16_2 0
x_6_17_0 0
x_6_17_1 0
x_6_17_2 0
x_6_18_0 0
x_6_18_1 0
x_6_18_2 0
x_6_19_0 0
x_6_19_1 1.0000000000000042e+00
x_6_19_2 0
x_6_20_0 0
x_6_20_1 0
x_6_20_2 0
x_7_8_0 0
x_7_8_1 0
x_7_8_2 0
x_7_9_0 0
x_7_9_1 0
x_7_9_2 0
x_7_10_0 0
x_7_10_1 0
x_7_10_2 0
x_7_11_0 0
x_7_11_1 0
x_7_11_2 0
x_7_12_0 0
x_7_12_1 0
x_7_12_2 0
x_7_13_0 8.4654505627668186e-16
x_7_13_1 0
x_7_13_2 0
x_7_14_0 8.4654505627668186e-16
x_7_14_1 1.0000000000000007e+00
x_7_14_2 0
x_7_15_0 0
x_7_15_1 0
x_7_15_2 0
x_7_16_0 0
x_7_16_1 0
x_7_16_2 0
x_7_17_0 0
x_7_17_1 0
x_7_17_2 0
x_7_18_0 0
x_7_18_1 0
x_7_18_2 0
x_7_19_0 0
x_7_19_1 0
x_7_19_2 0
x_7_20_0 0
x_7_20_1 1.0000000000000007e+00
x_7_20_2 0
x_8_9_0 0
x_8_9_1 0
x_8_9_2 0
x_8_10_0 0
x_8_10_1 0
x_8_10_2 0
x_8_11_0 0
x_8_11_1 0
x_8_11_2 0
x_8_12_0 0
x_8_12_1 0
x_8_12_2 0
x_8_13_0 0
x_8_13_1 0
x_8_13_2 0
x_8_14_0 0
x_8_14_1 0
x_8_14_2 0
x_8_15_0 9.9999999999999978e-01
x_8_15_1 0
x_8_15_2 0
x_8_16_0 0
x_8_16_1 1
x_8_16_2 0
x_8_17_0 0
x_8_17_1 1
x_8_17_2 0
x_8_18_0 0
x_8_18_1 0
x_8_18_2 0
x_8_19_0 0
x_8_19_1 0
x_8_19_2 0
x_8_20_0 0
x_8_20_1 0
x_8_20_2 0
x_9_10_0 -2.5646151868841116e-14
x_9_10_1 0
x_9_10_2 0
x_9_11_0 0
x_9_11_1 0
x_9_11_2 0
x_9_12_0 0
x_9_12_1 0
x_9_12_2 0
x_9_13_0 0
x_9_13_1 0
x_9_13_2 0
x_9_14_0 0
x_9_14_1 0
x_9_14_2 0
x_9_15_0 0
x_9_15_1 0
x_9_15_2 0
x_9_16_0 0
x_9_16_1 0
x_9_16_2 0
x_9_17_0 0
x_9_17_1 -2.3037127760972e-15
x_9_17_2 0
x_9_18_0 0
x_9_18_1 9.9999999999999956e-01
x_9_18_2 0
x_9_19_0 0
x_9_19_1 0
x_9_19_2 0
x_9_20_0 1.2795320358804929e-14
x_9_20_1 0
x_9_20_2 0
x_10_11_0 0
x_10_11_1 0
x_10_11_2 0
x_10_12_0 0
x_10_12_1 0
x_10_12_2 0
x_10_13_0 0
x_10_13_1 0
x_10_13_2 0
x_10_14_0 0
x_10_14_1 0
x_10_14_2 0
x_10_15_0 0
x_10_15_1 0
x_10_15_2 0
x_10_16_0 0
x_10_16_1 -2.7755575615628914e-17
x_10_16_2 0
x_10_17_0 1.0000000000000013e+00
x_10_17_1 0
x_10_17_2 0
x_10_18_0 0
x_10_18_1 0
x_10_18_2 0
x_10_19_0 0
x_10_19_1 0
x_10_19_2 0
x_10_20_0 0
x_10_20_1 0
x_10_20_2 0
x_11_12_0 0
x_11_12_1 1.0000000000000040e+00
x_11_12_2 0
x_11_13_0 0
x_11_13_1 0
x_11_13_2 0
x_11_14_0 0
x_11_14_1 0
x_11_14_2 0
x_11_15_0 0
x_11_15_1 0
x_11_15_2 0
x_11_16_0 0
x_11_16_1 6.4392935428259079e-15
x_11_16_2 0
x_11_17_0 0
x_11_17_1 0
x_11_17_2 0
x_11_18_0 0
x_11_18_1 0
x_11_18_2 0
x_11_19_0 0
x_11_19_1 0
x_11_19_2 0
x_11_20_0 0
x_11_20_1 0
x_11_20_2 0
x_12_13_0 -7.9242168382620548e-15
x_12_13_1 -1.5543122344752192e-15
x_12_13_2 -5.1347814888913490e-15
x_12_14_0 0
x_12_14_1 0
x_12_14_2 0
x_12_15_0 0
x_12_15_1 3.8163916471489756e-15
x_12_15_2 0
x_12_16_0 2.3869795029440866e-15
x_12_16_1 0
x_12_16_2 0
x_12_17_0 0
x_12_17_1 0
x_12_17_2 0
x_12_18_0 0
x_12_18_1 0
x_12_18_2 0
x_12_19_0 0
x_12_19_1 0
x_12_19_2 0
x_12_20_0 0
x_12_20_1 0
x_12_20_2 0
x_13_14_0 -6.38378239159465e-15
x_13_14_1 1
x_13_14_2 -8.2572837456496018e-15
x_13_15_0 0
x_13_15_1 0
x_13_15_2 0
x_13_16_0 0
x_13_16_1 0
x_13_16_2 0
x_13_17_0 0
x_13_17_1 0
x_13_17_2 0
x_13_18_0 0
x_13_18_1 0
x_13_18_2 0
x_13_19_0 0
x_13_19_1 0
x_13_19_2 0
x_13_20_0 0
x_13_20_1 0
x_13_20_2 0
x_14_15_0 0
x_14_15_1 0
x_14_15_2 0
x_14_16_0 0
x_14_16_1 0
x_14_16_2 0
x_14_17_0 0
x_14_17_1 0
x_14_17_2 0
x_14_18_0 0
x_14_18_1 0
x_14_18_2 0
x_14_19_0 0
x_14_19_1 0
x_14_19_2 0
x_14_20_0 0
x_14_20_1 0
x_14_20_2 0
x_15_16_0 0
x_15_16_1 -9.18709552877317e-15
x_15_16_2 0
x_15_17_0 -1.3600232051658168e-15
x_15_17_1 1.0000000000000095e+00
x_15_17_2 -7.2164496600635175e-15
x_15_18_0 0
x_15_18_1 0
x_15_18_2 0
x_15_19_0 0
x_15_19_1 0
x_15_19_2 0
x_15_20_0 0
x_15_20_1 0
x_15_20_2 0
x_16_17_0 0
x_16_17_1 0
x_16_17_2 0
x_16_18_0 0
x_16_18_1 0
x_16_18_2 0
x_16_19_0 0
x_16_19_1 0
x_16_19_2 0
x_16_20_0 0
x_16_20_1 0
x_16_20_2 0
x_17_18_0 0
x_17_18_1 0
x_17_18_2 0
x_17_19_0 0
x_17_19_1 0
x_17_19_2 0
x_17_20_0 0
x_17_20_1 0
x_17_20_2 0
x_18_19_0 0
x_18_19_1 0
x_18_19_2 0
x_18_20_0 0
x_18_20_1 0
x_18_20_2 0
x_19_20_0 0
x_19_20_1 0
x_19_20_2 0
